2
150 2
67
30 1 2
31 1 2
32 1 1
33 1 2
34 1 6
35 1 6
36 1 4
37 1 5
38 1 2
39 1 2
40 1 5
41 1 5
42 1 2
43 1 4
44 1 1
45 1 3
46 1 4
47 1 4
48 1 2
49 1 3
50 1 1
51 1 3
52 1 3
53 1 6
54 1 4
56 1 4
57 1 2
58 1 3
59 1 4
60 1 3
61 1 6
62 1 1
64 1 1
65 1 3
66 1 3
67 1 1
68 1 1
69 1 4
70 1 2
71 1 5
72 1 3
73 1 1
74 1 4
75 1 5
76 1 3
77 1 2
78 1 2
79 1 3
80 1 6
81 1 2
82 1 2
83 1 1
84 1 1
85 1 2
86 1 2
87 1 4
88 1 6
89 1 3
90 1 2
92 1 2
93 1 2
94 1 1
96 1 4
97 1 2
98 1 5
99 1 3
100 1 2
